width = 25;

n_circuits = 19;

circuit_x = array1d(1..19, [3, 3, 3, 3, 3, 3, 3, 3, 3, 3, 3, 3, 3, 3, 3, 4, 4, 4,
    6]);

circuit_y = array1d(1..19, [3, 4, 5, 6, 7, 8, 9, 10, 11, 13, 14, 17, 18, 19, 25,
    5, 7, 13, 3]);

dimensions = array2d(1..19, 1..2, [3, 3, 3, 4, 3, 5, 3, 6, 3, 7, 3, 8, 3, 9, 3, 10,
    3, 11, 3, 13, 3, 14, 3, 17, 3, 18, 3, 19, 3, 25, 4, 5, 4, 7, 4,
    13, 6, 3]);

max_height = 25;

max_y = 25;

